c generated by generate.py on 2024-12-24 06:28:38
c positive instance
p edge 34 61
e 0 7
e 0 8
e 0 24
e 0 29
e 0 30
e 1 8
e 1 19
e 1 24
e 2 4
e 2 25
e 2 26
e 2 33
e 3 4
e 3 19
e 3 27
e 4 6
e 4 9
e 4 16
e 4 32
e 5 7
e 5 10
e 5 31
e 6 8
e 6 11
e 6 21
e 6 24
e 6 25
e 7 26
e 7 28
e 8 9
e 8 11
e 8 17
e 8 21
e 10 20
e 10 32
e 11 28
e 11 29
e 12 22
e 12 25
e 13 16
e 13 24
e 13 32
e 14 18
e 14 32
e 15 19
e 15 21
e 15 23
e 15 25
e 15 28
e 15 32
e 15 33
e 16 18
e 17 28
e 17 32
e 23 31
e 24 28
e 25 28
e 26 33
e 27 28
e 27 29
e 29 33
